Route #1: 75 93
Route #2: 31 46 35
Route #3: 30 85 11 79
Route #4: 28 42 78 65 25
Route #5: 32 33 53 73 95 24
Route #6: 89 98 99 62 71
Route #7: 14 49 6 37 87
Route #8: 100 61 23
Route #9: 34 64 96 48 26 47 38
Route #10: 54 70 1
Route #11: 7 2 45 43 29 36 72 57
Route #12: 66 84 90 68
Route #13: 59 60 82
Route #14: 39 10 18
Route #15: 83 51 81
Route #16: 52 91 50
Route #17: 8 17
Route #18: 27 97 19
Route #19: 74 13 4
Route #20: 44 67 88 40
Route #21: 20 41 22 15
Route #22: 86 9 92
Route #23: 69 16 55 76
Route #24: 3 77 63
Route #25: 5 12 58
Route #26: 80 94 56 21
Cost 27591.0000
Time 16.0006